&CONTROL
   calculation      = 'scf'
   verbosity        = 'high'
   tstress          = .true.
   tprnfor          = .true.
   outdir           = './out'
   prefix           = 'scf'
   pseudo_dir       = '/n/home08/xiey/q-e/pseudo/'
/
&SYSTEM
   ibrav            = 0
   ecutwfc          = 50
   ecutrho          = 400
   nosym            = .true.
   occupations      = 'smearing'
   degauss          = 0.02
   smearing         = 'mv'
   ntyp             = 1
   nat              = 200
/
&ELECTRONS
   startingwfc      = 'atomic'
   electron_maxstep = 200
   conv_thr         = 2e-08
   mixing_beta      = 0.4
   mixing_mode      = 'local-TF'
/
&IONS
/
&CELL
   cell_dofree      = '2Dxy'
/

ATOMIC_SPECIES
Sn 118.71 sn_pbesol_v1.4.uspp.F.UPF

K_POINTS gamma

CELL_PARAMETERS angstrom
 39.6776  0.00000  0.0
  0.0000 45.81580  0.0
  0.0000  0.00000 50.0

ATOMIC_POSITIONS angstrom
Sn 0.121648 0.703488 0.172422
Sn 0.159217 43.3039 0.780051
Sn 2.68954 44.9032 49.4466
Sn 5.11199 45.234 0.959355
Sn 7.61544 0.898268 1.04221
Sn 9.86108 45.0592 1.30846
Sn 12.6155 44.9654 1.95656
Sn 13.9149 1.52816 1.34992
Sn 16.6765 2.25392 1.13802
Sn 18.0943 45.6747 1.07785
Sn 20.7665 45.8052 0.35626
Sn 22.1005 2.41825 0.564617
Sn 24.8568 2.28239 0.69014
Sn 25.8282 45.6405 1.43422
Sn 28.0552 -0.108374 -0.184472
Sn 29.1896 2.51932 0.518456
Sn 31.9038 2.25125 50.0691
Sn 34.6266 0.871625 49.8465
Sn 34.6034 43.1195 0.260573
Sn 36.9729 2.54128 0.324768
Sn 37.1457 5.7527 49.7919
Sn 0.295709 3.73294 49.5989
Sn 3.06004 1.98428 0.170967
Sn 2.62281 5.33811 0.675499
Sn 5.40965 4.02848 0.506487
Sn 9.23802 2.97424 0.197321
Sn 11.6338 3.13623 1.94081
Sn 14.4373 4.27936 0.425294
Sn 16.6707 6.99354 1.39164
Sn 18.0062 4.60466 1.05755
Sn 20.756 4.52644 1.75146
Sn 22.2786 6.81672 1.1805
Sn 24.8754 7.12241 0.274437
Sn 26.1918 4.82931 0.725412
Sn 28.403 4.99216 49.1413
Sn 28.7577 7.50181 0.866927
Sn 31.709 8.73486 0.0553007
Sn 31.1993 5.5608 0.374383
Sn 34.105 4.30451 0.403474
Sn 34.1836 7.42219 0.147895
Sn 39.6941 7.35714 0.295697
Sn 2.91194 8.83013 0.387293
Sn 4.97434 11.0418 50.0317
Sn 1.91575 11.7891 50.2317
Sn 7.30599 8.59949 0.552781
Sn 5.00683 7.00487 1.4091
Sn 7.83535 5.61348 0.698098
Sn 11.5795 5.81987 0.566398
Sn 13.9097 7.25662 1.26156
Sn 18.1467 9.23596 0.655463
Sn 20.9147 9.3133 1.2402
Sn 22.9475 11.0995 2.20555
Sn 24.4127 11.723 49.7013
Sn 26.1109 9.55266 0.935719
Sn 28.4656 9.92499 49.2899
Sn 29.6408 12.1181 0.772921
Sn 31.8758 11.9868 48.9729
Sn 34.2969 10.7601 0.201921
Sn 36.7196 8.94413 0.772323
Sn 36.8647 12.5495 49.9161
Sn 39.8307 14.1581 0.172029
Sn 39.2031 10.3878 0.190327
Sn 2.65015 16.588 0.247753
Sn 4.15019 14.1394 49.501
Sn 10.6174 20.5012 49.5972
Sn 5.4221 16.9717 49.367
Sn 9.54148 7.42882 2.16779
Sn 19.4953 18.2304 0.875132
Sn 18.5108 21.2291 1.84972
Sn 20.027 12.075 1.62249
Sn 22.4249 13.9597 0.869226
Sn 21.9375 18.7694 2.13923
Sn 24.0969 16.7382 1.0835
Sn 25.4968 13.9974 1.46907
Sn 28.2215 14.5263 0.350517
Sn 28.6752 17.4037 0.374453
Sn 31.207 18.5892 49.5434
Sn 31.1989 15.3155 49.505
Sn 34.1103 13.8633 0.0698309
Sn 36.9392 15.6667 49.5464
Sn 39.5182 17.3171 49.861
Sn 2.46063 19.4858 -0.039399
Sn 4.78912 18.9294 1.72351
Sn 4.86405 21.3431 49.9318
Sn 7.31801 19.5338 49.8756
Sn 11.5046 22.3895 1.72994
Sn 16.4938 19.4215 0.30336
Sn 13.6009 21.1794 49.3476
Sn 19.6043 22.4965 48.9654
Sn 16.6815 22.6278 0.0432749
Sn 21.3712 20.1163 49.2469
Sn 21.515 22.2971 1.84516
Sn 23.3911 24.3937 0.00438587
Sn 23.9218 20.7912 1.33369
Sn 26.1148 18.9517 0.935683
Sn 28.7142 20.5673 0.519695
Sn 31.5878 21.8629 0.0537206
Sn 33.9241 16.9998 49.9418
Sn 36.6572 18.8145 49.5886
Sn 34.0309 20.1923 50.0231
Sn 39.0883 23.8414 -0.230034
Sn 39.4248 20.5702 49.6323
Sn 2.1702 22.6572 0.289873
Sn 5.32486 24.2693 0.164037
Sn 8.6518 22.5062 0.388777
Sn 10.483 25.0086 0.564135
Sn 13.723 24.0039 0.436726
Sn 10.3711 27.899 0.889247
Sn 13.5788 27.4314 0.0169382
Sn 16.3177 25.6514 0.335685
Sn 19.2025 24.3206 1.37547
Sn 20.8746 26.4068 2.09212
Sn 22.8917 27.3629 0.320177
Sn 26.039 25.5764 0.0862574
Sn 26.1664 22.4264 49.8655
Sn 28.8355 23.9919 0.442661
Sn 31.5006 25.3735 49.692
Sn 33.9956 23.7041 0.482662
Sn 36.5912 22.1455 49.6151
Sn 36.5629 25.2461 49.6809
Sn 39.0128 26.7897 49.8341
Sn 2.23387 25.6385 0.297421
Sn 4.67941 27.49 0.645189
Sn 3.12991 30.5057 0.563005
Sn 7.53994 28.8771 0.77848
Sn 7.60733 26.0136 1.16841
Sn 12.6932 29.9638 1.57271
Sn 14.5707 32.6395 1.36287
Sn 17.4222 31.797 1.30795
Sn 15.1254 30.0695 49.8396
Sn 16.6935 28.3055 1.46689
Sn 19.2811 28.7334 2.34
Sn 23.6108 30.0322 0.50906
Sn 26.3573 28.8336 0.451224
Sn 28.7251 27.1607 49.4922
Sn 31.1746 31.9345 0.194344
Sn 31.3184 28.521 50.0346
Sn 33.918 26.9558 0.679595
Sn 36.4829 28.3335 0.517187
Sn 39.1745 29.5772 0.920104
Sn 38.9648 33.9439 0.298472
Sn 1.76331 28.498 48.9736
Sn 1.14983 32.2649 2.20637
Sn 2.04016 33.2573 49.3752
Sn 8.79555 37.4839 49.6625
Sn 10.2485 30.8488 0.604895
Sn 10.3942 35.2406 0.100644
Sn 16.2385 34.8743 0.540301
Sn 19.5086 33.7578 0.225493
Sn 20.2208 30.605 0.184332
Sn 22.0919 32.3766 1.44556
Sn 22.4823 34.8533 50.0097
Sn 25.2382 34.1625 0.771186
Sn 26.2036 31.837 49.4935
Sn 28.6511 30.7394 0.778605
Sn 28.5594 33.9174 0.279242
Sn 31.3486 35.0266 0.511105
Sn 33.8114 30.3359 0.482744
Sn 36.5586 31.8938 0.155503
Sn 33.836 33.4936 49.9152
Sn 39.1436 37.5371 0.728905
Sn 1.74836 36.1316 0.171519
Sn 3.88155 38.5604 49.2535
Sn 6.88225 39.6958 49.2661
Sn 10.3155 39.9662 49.639
Sn 11.597 37.9458 1.05365
Sn 13.2976 35.1287 0.684475
Sn 14.657 37.5508 1.51739
Sn 16.537 39.137 49.8237
Sn 18.3869 36.8182 0.549033
Sn 20.8741 36.6038 1.62082
Sn 22.2107 38.827 0.947394
Sn 24.6579 38.9148 49.7806
Sn 26.4642 36.716 49.9476
Sn 29.2663 37.1516 49.8102
Sn 29.9565 39.3291 1.5628
Sn 31.879 38.44 49.2918
Sn 33.7718 36.7984 0.5185
Sn 36.3323 35.116 49.6048
Sn 36.4944 38.1232 49.6067
Sn 37.2914 41.4278 0.521959
Sn 0.367038 40.3507 1.01514
Sn 3.10802 41.0779 0.541805
Sn 5.99244 42.4351 0.25906
Sn 8.70993 42.4512 0.0914967
Sn 11.8822 42.6948 49.9989
Sn 13.5213 40.2291 0.072004
Sn 14.4202 42.6889 1.55684
Sn 16.6835 43.5302 50.0573
Sn 18.0631 41.2802 0.918357
Sn 20.7722 40.9317 50.0167
Sn 21.6556 43.2991 1.47643
Sn 24.3414 43.3051 1.04655
Sn 25.7604 41.0252 1.27052
Sn 28.3757 41.3581 0.0884956
Sn 29.6772 43.6208 0.883526
Sn 32.0966 44.9256 49.6606
Sn 31.9244 41.1574 0.218909
Sn 34.552 39.9595 0.514346
Sn 36.9925 44.9606 -0.128354
