&CONTROL
   calculation      = 'scf'
   verbosity        = 'high'
   tstress          = .true.
   tprnfor          = .true.
   outdir           = './out'
   prefix           = 'scf'
   pseudo_dir       = '/n/home08/xiey/q-e/pseudo/'
/
&SYSTEM
   ibrav            = 0
   ecutwfc          = 50
   ecutrho          = 400
   nosym            = .true.
   occupations      = 'smearing'
   degauss          = 0.02
   smearing         = 'mv'
   ntyp             = 1
   nat              = 200
/
&ELECTRONS
   startingwfc      = 'atomic'
   electron_maxstep = 200
   conv_thr         = 2e-08
   mixing_beta      = 0.4
   mixing_mode      = 'local-TF'
/
&IONS
/
&CELL
   cell_dofree      = '2Dxy'
/

ATOMIC_SPECIES
Sn 118.71 sn_pbesol_v1.4.uspp.F.UPF

K_POINTS gamma

CELL_PARAMETERS angstrom
 39.6776  0.00000  0.0
  0.0000 45.81580  0.0
  0.0000  0.00000 50.0

ATOMIC_POSITIONS angstrom
Sn 0.0146926 2.19527 0.104738
Sn 1.12222 45.5332 0.893887
Sn 4.03438 45.5642 0.671147
Sn 5.35064 2.09709 1.18426
Sn 8.02033 2.19031 0.351621
Sn 9.52166 45.7936 1.32879
Sn 12.1521 45.5055 0.372009
Sn 13.3327 2.09209 0.991062
Sn 16.1467 2.09389 0.913578
Sn 17.2801 45.5091 1.4919
Sn 20.0613 45.8469 1.07282
Sn 21.3047 2.32427 2.17984
Sn 24.1034 2.24529 1.34793
Sn 25.2818 0.0644324 0.163872
Sn 28.0128 45.9429 49.5581
Sn 29.1507 2.3129 0.475627
Sn 31.8256 2.29623 49.64
Sn 32.8843 0.0538991 1.02751
Sn 35.6205 45.5517 0.441726
Sn 36.955 2.12624 0.879183
Sn 0.113153 6.43745 0.162675
Sn 1.68065 4.17708 1.02999
Sn 4.28809 4.14427 49.8091
Sn 5.21137 6.60703 0.623786
Sn 8.05577 6.74674 0.463884
Sn 9.35649 4.44843 1.2321
Sn 11.8596 4.2602 0.22778
Sn 13.2038 6.53403 1.08774
Sn 15.9222 7.05055 0.978596
Sn 17.1804 4.63624 1.11378
Sn 19.8817 4.59897 1.54668
Sn 21.1634 6.90986 2.14052
Sn 23.4191 6.72976 0.494151
Sn 25.1706 4.68987 0.990651
Sn 27.791 4.72004 49.9077
Sn 29.1872 7.10745 0.473479
Sn 31.7607 6.98605 49.6693
Sn 33.1747 4.71031 0.231497
Sn 35.9237 4.71348 0.174578
Sn 37.1765 7.0544 0.903385
Sn 0.227293 11.1811 49.6268
Sn 1.6144 8.8128 0.602054
Sn 4.05721 8.72851 49.4039
Sn 5.28973 11.1477 49.7371
Sn 8.07317 11.0616 49.2706
Sn 9.15656 9.09178 0.984734
Sn 11.8592 8.94731 0.889597
Sn 13.0649 11.4582 1.25844
Sn 15.8212 11.3565 0.56663
Sn 17.3171 9.40893 1.82514
Sn 19.7066 8.86083 0.538505
Sn 21.1327 11.3879 0.904571
Sn 23.8754 11.5782 0.278651
Sn 25.0143 9.11058 0.66258
Sn 27.6952 9.35189 -0.0394001
Sn 29.0563 11.4444 1.5644
Sn 31.9308 11.646 1.59541
Sn 33.1126 9.3823 0.56138
Sn 35.8246 9.15931 -0.3141
Sn 37.2022 11.3768 0.659819
Sn 39.5828 15.9353 49.3735
Sn 1.3544 13.6496 0.0428653
Sn 4.12968 13.6136 49.1874
Sn 5.48702 15.8764 48.5483
Sn 7.92175 15.8629 49.7175
Sn 9.11945 13.3962 0.161334
Sn 11.9169 13.5229 49.7442
Sn 13.2473 15.8841 0.0174143
Sn 16.0466 16.0705 49.9433
Sn 17.0431 13.7352 0.879388
Sn 19.7191 13.7 1.23134
Sn 21.0494 16.1621 0.880893
Sn 23.872 16.3168 0.90661
Sn 25.1581 13.8094 1.36644
Sn 27.7812 13.8972 1.39164
Sn 29.2371 16.2169 2.04943
Sn 31.8424 16.1593 2.48339
Sn 33.446 13.836 2.11004
Sn 35.6511 13.5831 0.520739
Sn 37.5835 15.579 1.23521
Sn 0.0383477 20.6938 49.6163
Sn 1.36023 18.2621 49.9891
Sn 4.0887 18.1707 49.5349
Sn 5.53162 20.6456 50.1575
Sn 8.20588 20.6446 49.2998
Sn 9.14379 18.2549 0.470151
Sn 11.8883 18.3812 49.6821
Sn 13.0234 20.4191 1.10779
Sn 15.6884 20.4924 50.0546
Sn 17.0763 18.3736 1.10581
Sn 19.5653 18.3124 -0.164775
Sn 21.01 20.6 0.63419
Sn 23.7836 20.6448 49.8861
Sn 25.1865 18.6889 1.39537
Sn 27.9609 18.4706 0.876769
Sn 29.5804 20.708 0.113246
Sn 32.2773 20.6147 0.501797
Sn 33.3556 18.3176 1.70241
Sn 36.0019 18.0167 0.892244
Sn 37.1017 20.5892 0.695889
Sn 0.143208 24.9215 49.4235
Sn 1.71538 22.7693 0.17364
Sn 4.1567 22.625 48.7962
Sn 5.12881 25.0907 49.5929
Sn 7.94791 25.1821 49.8325
Sn 9.40281 22.942 0.480539
Sn 12.1719 22.8828 49.9836
Sn 13.097 25.2209 0.931276
Sn 15.8226 25.2187 50.2484
Sn 17.2388 22.9388 0.684567
Sn 19.9584 23.0243 49.6751
Sn 21.1383 25.0305 0.918857
Sn 23.6423 25.2744 49.6775
Sn 25.1949 23.0443 0.374738
Sn 27.9798 22.9953 49.6875
Sn 29.0219 25.3992 0.761023
Sn 31.7714 25.1231 0.327668
Sn 33.2885 23.143 1.3478
Sn 35.6463 22.7498 49.8946
Sn 37.0489 25.1157 50.2609
Sn 0.00465847 29.4961 0.902582
Sn 1.38183 27.5101 49.5807
Sn 4.2239 27.6608 49.1972
Sn 5.53051 29.7559 0.123969
Sn 8.2285 29.8466 49.361
Sn 9.10146 27.6626 0.796083
Sn 11.8099 27.6946 0.508627
Sn 13.6582 29.8992 0.337054
Sn 16.4664 29.7926 0.418387
Sn 17.2353 27.3363 1.43137
Sn 19.9693 27.4329 0.854106
Sn 21.4874 29.91 1.3025
Sn 23.8199 29.7964 -0.25389
Sn 24.904 27.5271 0.805676
Sn 27.5253 27.4832 49.9889
Sn 29.0472 29.6639 0.303252
Sn 31.7962 29.661 49.5948
Sn 33.1637 27.5106 0.711986
Sn 35.6348 27.3235 49.2507
Sn 36.8924 29.4973 0.571359
Sn -0.146543 34.3123 -0.0517598
Sn 1.37018 32.0362 0.654451
Sn 4.02995 32.1011 49.3616
Sn 5.3431 34.0624 0.879829
Sn 7.94768 34.4509 -0.240014
Sn 9.499 32.1522 0.413978
Sn 12.0805 32.1127 49.6833
Sn 13.3187 34.3382 0.712664
Sn 16.014 34.2924 0.629172
Sn 17.4545 32.2066 1.74247
Sn 19.7934 31.88 0.105704
Sn 21.4411 34.1403 -0.118067
Sn 24.187 34.4581 50.0297
Sn 25.2207 32.0782 0.708231
Sn 27.8178 32.2169 49.7523
Sn 29.268 34.1899 1.05172
Sn 31.8737 34.291 0.153328
Sn 33.1175 31.8144 0.752902
Sn 35.8353 31.9622 49.5451
Sn 36.7997 34.4144 0.557877
Sn 39.6489 38.8156 0.448626
Sn 1.21059 36.4757 1.12417
Sn 3.91057 36.4167 0.623407
Sn 5.33463 38.6368 1.29635
Sn 8.03945 38.6342 0.426424
Sn 9.43181 36.4105 1.22029
Sn 11.8997 36.7368 0.0329563
Sn 13.2336 38.9134 1.05822
Sn 15.8579 38.6763 49.9702
Sn 17.4909 36.5863 0.966091
Sn 20.1217 36.5723 -0.0430468
Sn 21.322 39.02 0.427061
Sn 24.0171 39.0753 50.1273
Sn 25.2202 36.784 1.06564
Sn 28.0733 36.519 0.255985
Sn 29.1693 39.1174 0.709579
Sn 31.6406 39.2353 49.5488
Sn 33.0208 36.9129 49.4944
Sn 35.8157 36.6407 49.2571
Sn 36.9121 38.602 0.932978
Sn 0.0251286 43.2541 49.6866
Sn 1.44858 41.1584 0.743223
Sn 4.09213 40.9071 0.10864
Sn 5.48712 43.221 1.17546
Sn 8.09867 43.5832 0.10465
Sn 9.17409 41.0294 0.863899
Sn 11.8593 41.2179 0.370329
Sn 13.3376 43.2792 1.32302
Sn 15.9064 43.5702 50.0005
Sn 17.2077 41.1466 0.416106
Sn 19.7595 41.1828 49.7138
Sn 21.051 43.2863 1.11673
Sn 23.5465 43.5318 0.0283025
Sn 24.959 41.4056 1.2833
Sn 27.6207 41.4463 0.656314
Sn 29.0457 43.8392 1.0261
Sn 31.7157 43.5571 0.199879
Sn 33.1194 41.1354 0.796989
Sn 35.7806 40.9762 -0.0365027
Sn 37.1344 43.2167 0.81596
