&CONTROL
   calculation      = 'scf'
   verbosity        = 'high'
   tstress          = .true.
   tprnfor          = .true.
   outdir           = './out'
   prefix           = 'scf'
   pseudo_dir       = '/n/home08/xiey/q-e/pseudo/'
/
&SYSTEM
   ibrav            = 0
   ecutwfc          = 50
   ecutrho          = 400
   nosym            = .true.
   occupations      = 'smearing'
   degauss          = 0.02
   smearing         = 'mv'
   ntyp             = 1
   nat              = 200
/
&ELECTRONS
   startingwfc      = 'atomic'
   electron_maxstep = 200
   conv_thr         = 2e-08
   mixing_beta      = 0.4
   mixing_mode      = 'local-TF'
/
&IONS
/
&CELL
   cell_dofree      = '2Dxy'
/

ATOMIC_SPECIES
Sn 118.71 sn_pbesol_v1.4.uspp.F.UPF

K_POINTS gamma

CELL_PARAMETERS angstrom
 39.6776  0.00000  0.0
  0.0000 45.81580  0.0
  0.0000  0.00000 50.0

ATOMIC_POSITIONS angstrom
Sn 0.152163 1.95179 -0.275687
Sn 1.4108 -0.25676 0.904629
Sn 4.02455 45.7105 49.8806
Sn 5.27051 2.13222 0.963062
Sn 7.90492 2.08474 0.306261
Sn 9.21418 45.8283 1.47961
Sn 11.8969 45.9609 0.162906
Sn 13.2064 2.50136 0.802277
Sn 15.8194 2.24267 50.0572
Sn 17.115 0.00652475 0.952678
Sn 19.7874 0.316416 0.190931
Sn 21.0853 2.55282 1.178
Sn 23.6302 2.53543 50.1577
Sn 25.252 46.0397 1.02168
Sn 27.8624 0.107604 50.2764
Sn 29.2149 2.38848 1.03392
Sn 32.085 1.95536 1.0628
Sn 33.2455 45.1971 0.895178
Sn 35.9605 45.437 49.8456
Sn 37.1431 2.00978 0.456007
Sn 0.166299 6.67693 49.6496
Sn 1.43111 4.3742 0.563935
Sn 4.1433 4.38211 49.7119
Sn 5.45441 6.9236 50.3097
Sn 8.16929 6.84382 49.5619
Sn 9.12624 4.52228 0.76437
Sn 11.6927 4.59067 49.6161
Sn 12.946 6.92408 0.473357
Sn 15.7097 7.15818 0.863077
Sn 17.095 4.66862 0.876863
Sn 19.6979 4.65037 0.0150355
Sn 20.9351 6.88183 0.633556
Sn 23.7019 7.03499 0.992058
Sn 25.2491 4.94013 0.403063
Sn 27.654 4.56928 1.6793
Sn 29.0238 7.03565 1.33794
Sn 31.6686 6.67806 0.575505
Sn 32.9705 4.54817 1.96664
Sn 35.7323 4.34933 1.17957
Sn 37.1186 6.67165 0.329684
Sn -0.00102278 11.2741 50.0129
Sn 1.47529 8.99545 0.337057
Sn 3.96767 9.07278 49.2949
Sn 5.3168 11.3476 50.3739
Sn 7.88966 11.1102 49.4141
Sn 9.15714 9.1273 0.848459
Sn 11.7908 9.27003 49.6402
Sn 13.28 11.3384 0.497034
Sn 15.8899 11.5458 49.66
Sn 17.1054 9.56261 1.02745
Sn 19.6678 9.29777 0.319609
Sn 21.2497 11.6039 50.0588
Sn 23.888 11.7193 -0.0514855
Sn 25.1852 9.51814 0.680111
Sn 27.9024 9.21236 49.9797
Sn 29.248 11.5401 0.810385
Sn 31.9548 11.3269 0.369149
Sn 33.1062 9.00041 1.22597
Sn 35.7124 9.03798 0.143415
Sn 37.0045 11.3072 0.907158
Sn -0.0324996 16.0589 49.6919
Sn 1.30443 13.6775 0.622674
Sn 3.86094 13.5481 49.7064
Sn 5.13258 15.9688 50.1626
Sn 7.94841 16.132 49.8306
Sn 9.21423 13.5939 49.6272
Sn 12.1106 13.6362 49.368
Sn 13.2527 15.6722 1.02325
Sn 15.8702 16.0203 0.0413473
Sn 17.2495 13.7828 0.8157
Sn 19.8129 13.9992 49.9044
Sn 21.0069 16.3277 0.807413
Sn 23.6871 16.0571 -0.119793
Sn 25.4742 13.9561 0.951082
Sn 28.0718 13.8722 -0.13249
Sn 29.106 15.9914 1.4489
Sn 31.8411 16.1744 0.98485
Sn 33.2558 13.7516 1.11427
Sn 35.8185 13.662 0.116303
Sn 37.0407 16.2073 0.719483
Sn 39.5344 20.7276 -0.0800392
Sn 1.35271 18.339 0.151327
Sn 4.03434 18.3074 49.2288
Sn 5.36062 20.5277 0.442118
Sn 8.26184 20.4779 50.0829
Sn 9.1611 18.1852 1.3623
Sn 11.8138 18.0261 0.410475
Sn 13.266 20.3362 0.418123
Sn 15.9254 20.6416 0.952713
Sn 17.1869 18.352 1.40277
Sn 19.5911 18.627 49.7816
Sn 21.2484 20.6365 0.3623
Sn 23.9118 20.7727 49.4765
Sn 25.0819 18.4709 0.74092
Sn 28.0708 18.437 0.536878
Sn 29.1305 20.9491 1.13942
Sn 31.6938 20.2396 0.689662
Sn 33.1771 18.3468 2.07205
Sn 35.5084 18.467 0.333536
Sn 37.0278 20.7571 1.0799
Sn 0.230203 25.3608 0.658952
Sn 1.45928 22.9344 0.789867
Sn 4.08015 22.7854 -0.0985733
Sn 5.59474 25.1379 49.7103
Sn 8.24649 24.9561 49.0302
Sn 9.53994 22.907 0.194093
Sn 12.205 22.846 49.5508
Sn 13.4394 24.8681 0.923912
Sn 16.123 25.2486 0.0669648
Sn 17.1249 23.1664 1.45949
Sn 19.7895 22.9903 0.317274
Sn 21.2344 25.3093 0.959216
Sn 23.7706 25.0792 49.8318
Sn 25.2834 22.8736 0.63868
Sn 27.8441 22.9455 49.6668
Sn 29.147 25.3012 0.593348
Sn 31.8835 24.931 0.0978981
Sn 33.1503 22.5728 1.08347
Sn 35.7243 22.8421 50.0118
Sn 37.2235 25.2288 0.792823
Sn 0.108135 29.8899 49.833
Sn 1.63775 27.8292 0.97183
Sn 4.12228 27.5492 49.5444
Sn 5.41635 29.7397 0.745959
Sn 8.03529 29.5776 49.7242
Sn 9.55599 27.2215 50.003
Sn 12.3085 27.432 49.8085
Sn 13.3031 29.7366 0.956637
Sn 16.041 29.7391 0.100044
Sn 17.3839 27.5842 1.11171
Sn 20.0464 27.6617 0.364435
Sn 21.2897 29.9881 1.45284
Sn 23.7888 30.0243 0.233528
Sn 25.0689 27.4659 0.258627
Sn 27.8549 27.7099 -0.132183
Sn 29.2375 29.9384 0.674774
Sn 31.867 29.8177 49.875
Sn 33.1381 27.4622 0.651183
Sn 35.78 27.2895 -0.239102
Sn 36.9318 29.6665 0.487361
Sn 39.7829 34.3982 49.8207
Sn 1.37701 32.0569 0.827196
Sn 3.99133 31.8792 50.0036
Sn 5.19183 34.1636 0.729665
Sn 7.99526 34.1034 0.575805
Sn 9.23343 31.6627 0.905051
Sn 11.8811 31.9506 -0.187389
Sn 13.0166 34.4006 1.06228
Sn 15.7688 34.2005 0.370666
Sn 17.222 32.0126 1.04699
Sn 19.8802 32.1806 0.372409
Sn 20.7935 34.6549 1.25512
Sn 23.6186 34.4379 0.852607
Sn 25.1183 32.0448 1.49572
Sn 27.5769 32.2732 0.42861
Sn 29.1883 34.488 0.820394
Sn 31.6942 34.5317 -0.109268
Sn 32.9824 32.1848 0.851634
Sn 35.7113 32.1675 0.18883
Sn 36.9994 34.5183 0.896194
Sn 0.361326 39.1368 0.316831
Sn 1.40189 36.7119 0.518024
Sn 4.16476 36.6331 49.978
Sn 5.35685 39.0614 1.0267
Sn 7.9945 39.1356 0.451425
Sn 9.00217 36.6531 0.919292
Sn 11.6746 36.7012 0.20784
Sn 13.3233 38.8806 0.894722
Sn 15.7311 39.2347 49.6119
Sn 17.0953 36.7672 0.0988048
Sn 19.8615 36.7627 -0.137091
Sn 21.2641 39.1586 0.65072
Sn 23.8373 39.0061 49.7224
Sn 24.9961 36.8923 0.974015
Sn 27.5404 36.5657 49.8811
Sn 28.9529 38.8866 0.378039
Sn 31.6271 38.9107 49.7982
Sn 33.124 36.6732 0.730947
Sn 35.6904 36.5363 -0.337226
Sn 37.161 38.8123 0.63492
Sn 0.275544 43.1646 -0.29093
Sn 1.44361 41.2828 1.48528
Sn 4.02749 41.6528 0.29549
Sn 5.76365 43.8409 1.00773
Sn 8.48965 43.463 0.0510631
Sn 9.44604 41.27 1.63777
Sn 11.8397 41.198 0.479488
Sn 13.2474 43.5552 0.533352
Sn 15.9321 43.59 -0.0515031
Sn 17.0553 41.255 1.1067
Sn 19.6754 41.4069 0.0730709
Sn 21.022 43.7468 0.827374
Sn 23.8375 43.8023 0.184885
Sn 25.2262 41.3538 0.169233
Sn 27.9677 41.3362 49.576
Sn 28.9373 43.5257 0.957649
Sn 31.5243 43.2763 -0.10152
Sn 33.2644 41.1082 0.513947
Sn 35.9747 41.0369 49.902
Sn 37.3571 43.1053 0.769018
