&CONTROL
   calculation      = 'scf'
   verbosity        = 'high'
   tstress          = .true.
   tprnfor          = .true.
   outdir           = './out'
   prefix           = 'scf'
   pseudo_dir       = '/n/home08/xiey/q-e/pseudo/'
/
&SYSTEM
   ibrav            = 0
   ecutwfc          = 50
   ecutrho          = 400
   nosym            = .true.
   occupations      = 'smearing'
   degauss          = 0.02
   smearing         = 'mv'
   ntyp             = 1
   nat              = 200
/
&ELECTRONS
   startingwfc      = 'atomic'
   electron_maxstep = 200
   conv_thr         = 2e-08
   mixing_beta      = 0.4
   mixing_mode      = 'local-TF'
/
&IONS
/
&CELL
   cell_dofree      = '2Dxy'
/

ATOMIC_SPECIES
Sn 118.71 sn_pbesol_v1.4.uspp.F.UPF

K_POINTS gamma

CELL_PARAMETERS angstrom
 39.6776  0.00000  0.0
  0.0000 45.81580  0.0
  0.0000  0.00000 50.0

ATOMIC_POSITIONS angstrom
Sn 0.444307 2.57026 1.95342
Sn 36.4524 0.697653 49.1237
Sn 1.93564 4.90464 49.5699
Sn 3.63571 6.39281 1.85417
Sn 5.73607 6.83061 49.5797
Sn 6.36254 5.84389 2.37124
Sn 11.0299 4.33118 0.987648
Sn 12.8567 2.32958 49.5024
Sn 15.6553 2.67464 0.199738
Sn 17.414 0.206428 1.09624
Sn 20.2902 0.377584 1.31584
Sn 21.4488 2.68589 0.0575392
Sn 24.0274 2.94067 0.754559
Sn 25.1678 0.448044 1.27569
Sn 27.8669 46.0977 1.43692
Sn 29.4185 2.66638 1.99969
Sn 32.5757 3.34007 2.44273
Sn 31.7432 0.359971 0.941442
Sn 34.8456 0.764215 1.7174
Sn 36.8326 3.16021 1.85393
Sn 38.5478 3.60235 49.3249
Sn 39.2591 5.87628 1.60915
Sn 1.60912 7.96591 0.395447
Sn 4.77809 9.04077 1.36913
Sn 7.74988 8.33451 1.28649
Sn 8.91159 6.19086 49.316
Sn 11.933 5.70695 48.5994
Sn 14.4926 5.54016 1.05255
Sn 15.5552 7.77746 49.0879
Sn 17.349 5.13332 49.2796
Sn 19.9249 4.87861 0.510352
Sn 21.3386 7.50194 1.18949
Sn 24.3895 7.46594 0.654866
Sn 25.8665 4.9828 1.77849
Sn 28.2902 4.81237 0.0192521
Sn 29.9039 7.73391 50.0014
Sn 30.4974 5.49664 1.95659
Sn 33.6384 5.90037 1.01067
Sn 34.0453 3.31858 49.8156
Sn 36.4354 5.67523 49.9377
Sn 0.51724 10.785 0.715553
Sn 38.1661 8.01865 49.5303
Sn 2.98234 10.2182 49.017
Sn 5.95693 10.2978 49.1875
Sn 8.64972 10.7893 49.5385
Sn 10.5125 8.71716 48.9203
Sn 12.713 7.66632 0.755396
Sn 13.949 10.3188 49.9344
Sn 16.6536 10.5661 0.670012
Sn 18.2416 7.87083 0.889328
Sn 20.0288 10.3262 0.686235
Sn 22.9464 12.1398 0.225282
Sn 22.8261 9.81584 2.20812
Sn 25.6614 10.2175 0.987796
Sn 27.3767 7.56974 1.49906
Sn 28.818 10.4262 0.670756
Sn 31.2017 11.3236 1.94694
Sn 32.1287 8.49992 1.68601
Sn 34.9036 8.59283 -0.0820379
Sn 37.086 10.6668 0.225557
Sn -0.139209 15.4339 0.626108
Sn 1.57303 13.2329 49.6262
Sn 4.56891 12.7141 48.7637
Sn 5.7343 15.2297 48.7371
Sn 8.06298 15.1616 0.174766
Sn 9.92697 13.3318 49.3727
Sn 12.4972 12.7199 0.579255
Sn 14.0453 15.0815 0.208458
Sn 17.1351 14.5435 49.8395
Sn 18.1862 12.7482 1.85537
Sn 21.0006 12.521 2.66649
Sn 20.2735 13.9034 49.9309
Sn 22.5878 15.0432 1.85322
Sn 24.5604 12.7912 2.79233
Sn 27.4967 12.7955 1.94442
Sn 28.7203 15.4616 1.38582
Sn 31.3963 15.0286 0.805892
Sn 33.3002 12.7707 0.379052
Sn 36.075 13.2696 0.871375
Sn 36.8189 15.9129 0.087298
Sn 0.259372 19.5554 0.866395
Sn 1.50413 17.4131 49.3755
Sn 4.28488 17.2925 50.0363
Sn 5.97219 19.7017 0.255266
Sn 8.5889 19.7365 0.706438
Sn 9.60282 17.3925 49.567
Sn 12.4934 17.3391 49.6037
Sn 14.2464 19.4768 49.2831
Sn 16.913 19.212 0.305519
Sn 18.3027 16.9697 0.995262
Sn 21.0452 16.909 0.163453
Sn 22.8259 19.0456 50.0101
Sn 25.5484 19.0963 0.5971
Sn 25.5616 14.8655 0.630901
Sn 27.3632 17.1536 49.6135
Sn 29.7214 18.5639 1.24252
Sn 32.5791 19.575 2.01406
Sn 32.7501 17.4742 49.9455
Sn 35.2311 17.7599 1.51482
Sn 37.1249 20.0098 0.847869
Sn 38.796 23.4487 0.475303
Sn 1.38968 21.8973 0.56598
Sn 4.18607 22.0242 0.333395
Sn 6.26993 23.8722 49.1927
Sn 8.86363 23.9322 0.497451
Sn 10.4474 21.6151 49.7894
Sn 13.1958 21.7932 0.284666
Sn 14.6207 23.9975 49.5574
Sn 17.3753 23.9185 0.615009
Sn 18.6942 21.533 49.8652
Sn 21.4469 21.3811 49.1657
Sn 22.7196 23.8568 49.5776
Sn 25.3569 23.8545 0.438533
Sn 27.1839 21.3759 1.37995
Sn 30.4778 21.5282 0.680809
Sn 28.6572 24.0312 50.0815
Sn 31.3949 24.4522 1.63122
Sn 33.3678 22.22 1.45075
Sn 36.0456 22.5442 1.51512
Sn 36.4702 24.3729 49.2788
Sn 38.7618 26.2819 49.0106
Sn 1.81107 24.2725 48.7337
Sn 4.33052 25.1821 0.674037
Sn 6.97489 26.7617 49.3524
Sn 9.3058 26.6126 1.58482
Sn 11.6172 24.6855 49.7753
Sn 13.9291 26.8075 49.3747
Sn 15.804 27.9818 1.01132
Sn 17.8474 29.0553 49.4661
Sn 18.8197 26.3388 0.137467
Sn 21.6665 26.4365 0.40348
Sn 22.7714 28.9296 1.33934
Sn 25.479 29.0093 0.909375
Sn 26.5544 26.4902 0.194283
Sn 29.1404 26.8933 1.59266
Sn 30.2019 29.22 0.300763
Sn 33.2085 28.7685 0.261246
Sn 31.0815 26.459 49.3352
Sn 34.211 25.7347 0.887231
Sn 36.7438 27.8818 1.02073
Sn 39.6847 26.1649 1.9127
Sn 2.11716 27.1678 49.6435
Sn 5.11908 27.9161 1.0588
Sn 7.67208 29.0414 1.21848
Sn 10.8106 29.8991 49.2786
Sn 11.6417 27.6572 0.796364
Sn 13.9689 29.6892 48.7534
Sn 15.4696 31.0887 0.660989
Sn 17.1287 33.7224 1.51162
Sn 18.7597 31.4568 0.728979
Sn 21.419 31.3801 1.74902
Sn 22.9229 33.5132 0.618044
Sn 25.4946 33.6534 2.1257
Sn 26.5949 31.2684 1.54576
Sn 29.1601 31.7745 1.0555
Sn 29.8477 34.4927 50.1272
Sn 32.8007 34.315 -0.0932603
Sn 32.3037 31.5097 1.16972
Sn 35.2628 30.7805 0.622274
Sn 35.6349 35.2761 50.223
Sn 38.1753 43.992 49.49
Sn 36.1983 40.9727 1.02004
Sn 37.886 42.5927 2.49187
Sn 1.13814 45.393 1.60167
Sn 4.85348 3.87735 0.100792
Sn 12.4424 32.0813 49.9245
Sn 14.815 33.8441 49.8928
Sn 15.1535 36.4164 1.55907
Sn 16.7999 38.2808 0.632639
Sn 18.6894 36.212 0.856695
Sn 21.5826 35.9478 0.793852
Sn 22.0027 38.7381 0.700294
Sn 24.6317 38.9803 1.57346
Sn 26.0116 36.3959 1.43405
Sn 28.5427 36.9368 0.865085
Sn 29.6991 39.3846 1.15445
Sn 31.949 39.3421 49.2319
Sn 33.3705 37.2389 49.9609
Sn 35.5665 38.2714 1.54137
Sn 33.3383 41.0961 1.34474
Sn 35.8174 43.5354 47.6422
Sn 37.7735 45.8026 2.18123
Sn 2.97136 1.41777 0.212586
Sn 39.855 0.726049 49.3113
Sn 3.3125 3.42262 2.63929
Sn 7.85124 3.59563 0.733357
Sn 14.533 0.207519 1.38084
Sn 14.0067 2.77821 2.67908
Sn 18.3065 43.481 50.1507
Sn 18.2805 40.6111 1.22373
Sn 20.8271 41.2164 0.176854
Sn 21.6141 43.8582 0.181448
Sn 24.3915 43.6826 0.934715
Sn 26.0487 41.3662 1.17112
Sn 28.7853 42.1989 1.59485
Sn 28.9144 44.0139 49.2764
Sn 31.6334 43.3736 0.20626
Sn 33.7372 41.9532 48.5733
Sn 35.4668 43.8274 0.843193
Sn 33.4631 45.5068 48.6179
