&CONTROL
   calculation      = 'scf'
   verbosity        = 'high'
   tstress          = .true.
   tprnfor          = .true.
   outdir           = './out'
   prefix           = 'scf'
   pseudo_dir       = '/n/home08/xiey/q-e/pseudo/'
/
&SYSTEM
   ibrav            = 0
   ecutwfc          = 50
   ecutrho          = 400
   nosym            = .true.
   occupations      = 'smearing'
   degauss          = 0.02
   smearing         = 'mv'
   ntyp             = 1
   nat              = 200
/
&ELECTRONS
   startingwfc      = 'atomic'
   electron_maxstep = 200
   conv_thr         = 2e-08
   mixing_beta      = 0.4
   mixing_mode      = 'local-TF'
/
&IONS
/
&CELL
   cell_dofree      = '2Dxy'
/

ATOMIC_SPECIES
Sn 118.71 sn_pbesol_v1.4.uspp.F.UPF

K_POINTS gamma

CELL_PARAMETERS angstrom
 39.6776  0.00000  0.0
  0.0000 45.81580  0.0
  0.0000  0.00000 50.0

ATOMIC_POSITIONS angstrom
Sn 26.392 19.7949 7.10401
Sn 15.9915 13.8121 46.6232
Sn 23.9838 6.52368 42.7654
Sn 27.1464 14.0968 7.52128
Sn 20.7419 14.8732 44.986
Sn 24.8633 24.7313 7.35547
Sn 29.1597 10.0308 41.353
Sn 19.1738 12.5585 49.9646
Sn 16.9552 9.0239 45.105
Sn 30.8012 21.809 2.93415
Sn 21.7458 19.9775 9.35198
Sn 32.0579 14.6061 3.14301
Sn 26.8018 17.2963 43.6147
Sn 25.0854 23.5983 48.3615
Sn 18.5785 5.74061 6.05394
Sn 24.9502 24.9165 2.61053
Sn 26.3625 8.40265 4.3165
Sn 15.9832 11.1312 5.66979
Sn 31.5624 11.5166 44.9806
Sn 24.7988 8.41355 1.07916
Sn 17.6815 11.1221 47.5871
Sn 25.6393 20.7775 48.4889
Sn 17.0968 13.3387 8.68501
Sn 21.8367 10.6892 1.6318
Sn 20.9318 10.4811 48.1516
Sn 18.7263 11.5038 2.98013
Sn 21.3649 7.03605 46.7723
Sn 27.6649 10.8102 3.30443
Sn 24.4222 10.8798 3.64749
Sn 26.4419 14.4715 45.3247
Sn 26.7567 9.09357 9.21861
Sn 31.7095 7.98903 2.90517
Sn 17.0765 6.57055 0.555014
Sn 21.7008 12.9554 8.42286
Sn 17.3963 15.8642 1.46236
Sn 20.4819 9.48983 45.2302
Sn 28.989 10.8316 8.32272
Sn 29.2663 18.7398 48.5952
Sn 27.2648 9.11298 46.2103
Sn 26.6313 15.1007 1.20056
Sn 26.7464 7.09667 7.03658
Sn 19.3058 14.9198 9.70552
Sn 20.1771 14.3509 2.2576
Sn 24.4118 13.7572 9.27247
Sn 26.085 6.62998 45.0461
Sn 22.7313 12.3929 46.0553
Sn 31.2982 8.65897 44.3973
Sn 22.0425 16.1489 8.81432
Sn 13.2787 15.5496 45.7003
Sn 26.1556 13.9649 4.25535
Sn 20.2258 17.3597 46.9513
Sn 23.6815 10.0266 48.4503
Sn 15.1329 10.7866 43.8415
Sn 18.9126 9.00964 42.4971
Sn 28.9455 13.7484 2.71549
Sn 18.564 4.68508 48.3647
Sn 25.1126 19.3625 45.524
Sn 31.5425 13.1847 0.84889
Sn 15.7502 9.48928 49.7178
Sn 26.5281 11.0524 6.19485
Sn 25.8086 11.6919 46.8686
Sn 22.8275 18.7399 48.1211
Sn 27.3326 9.53193 49.4722
Sn 27.9546 14.8998 42.4569
Sn 21.0946 18.4439 0.458074
Sn 21.1133 14.6891 5.54945
Sn 21.2072 5.77513 3.77993
Sn 30.3876 6.80109 49.9854
Sn 18.653 9.82381 0.38799
Sn 27.2992 24.7647 5.10313
Sn 15.6018 14.0268 43.537
Sn 20.5391 15.7231 49.787
Sn 23.8914 10.6496 8.8698
Sn 18.7876 12.5446 6.31309
Sn 28.8902 21.392 0.634659
Sn 30.1479 9.20011 47.1014
Sn 29.5727 15.1819 45.1392
Sn 26.1279 4.63637 47.7683
Sn 29.2475 19.329 6.39638
Sn 22.1865 16.9168 3.31786
Sn 29.4447 12.1781 5.63739
Sn 25.0356 11.7905 44.0507
Sn 29.0662 12.281 43.614
Sn 18.9505 14.549 42.4182
Sn 18.4715 9.02441 5.89
Sn 25.487 17.0019 47.4878
Sn 20.8146 21.0389 6.9941
Sn 28.8997 21.9692 5.17663
Sn 18.3752 6.425 45.0579
Sn 18.2549 18.8707 6.06172
Sn 19.3109 11.5573 10.0699
Sn 26.5927 11.9748 10.2933
Sn 22.8439 22.0605 46.7123
Sn 28.4172 24.0513 2.11216
Sn 29.9016 16.0885 0.630493
Sn 13.2134 12.7684 45.0412
Sn 25.3856 13.9539 48.6389
Sn 14.7669 14.4644 7.09218
Sn 22.2837 13.4772 49.8352
Sn 23.4963 14.153 2.41816
Sn 19.2122 17.9361 8.87774
Sn 14.6862 14.5653 1.85927
Sn 21.294 7.14024 43.5559
Sn 17.824 19.3824 46.1444
Sn 23.9932 18.3487 8.07211
Sn 29.2791 6.17739 44.7628
Sn 14.0295 12.9742 4.5743
Sn 17.8371 12.0515 44.6304
Sn 13.1576 13.3575 48.1646
Sn 23.0608 5.02716 45.196
Sn 22.6932 22.5032 2.80996
Sn 23.7416 14.796 44.3527
Sn 13.3243 15.7618 4.12628
Sn 18.4051 7.88742 47.9554
Sn 25.5486 11.7794 0.951293
Sn 23.8508 15.7981 5.95096
Sn 23.7549 16.6753 0.356586
Sn 28.7393 12.6335 46.7354
Sn 26.6455 25.0869 0.179689
Sn 16.2156 17.1861 8.2658
Sn 28.9501 6.33157 47.5738
Sn 13.3151 17.5904 6.15578
Sn 31.5528 12.3995 47.7749
Sn 15.8205 12.7273 49.3555
Sn 17.4424 10.1076 8.48393
Sn 18.1016 19.43 1.58326
Sn 28.6336 8.12168 2.13078
Sn 15.3505 18.0526 46.7235
Sn 22.9897 4.62932 48.3936
Sn 17.3737 18.1734 48.7706
Sn 19.994 13.645 47.268
Sn 28.3744 12.5342 49.8763
Sn 23.6902 12.7634 6.32299
Sn 21.5246 15.9497 41.9506
Sn 17.6872 6.05581 3.44299
Sn 24.3969 5.91956 5.56892
Sn 25.7894 22.5168 4.5961
Sn 19.7491 8.26837 3.02392
Sn 26.8107 6.21359 0.483641
Sn 24.814 7.29525 47.7004
Sn 25.2792 16.891 3.2872
Sn 15.4738 8.18592 6.11879
Sn 30.8686 10.9638 3.08631
Sn 22.9744 9.7556 42.4401
Sn 27.0537 22.2946 8.12607
Sn 16.553 8.7534 3.31628
Sn 26.7666 16.9059 6.04455
Sn 19.8775 5.60074 0.831895
Sn 14.4151 17.5978 1.44181
Sn 31.9796 6.88724 46.8852
Sn 31.6487 17.2224 4.08256
Sn 25.8643 22.0504 1.45616
Sn 21.1612 7.56768 5.921
Sn 26.8236 18.4033 0.417304
Sn 29.549 15.3445 5.53305
Sn 21.4498 18.1096 6.15748
Sn 19.8463 18.1503 43.9085
Sn 20.0871 20.6021 48.279
Sn 23.9262 5.5774 0.801064
Sn 23.7458 19.4897 1.65172
Sn 28.2857 7.28887 42.2032
Sn 21.4982 10.7073 4.76522
Sn 22.819 15.4644 47.346
Sn 14.9351 15.8259 49.0188
Sn 19.859 21.8571 1.2233
Sn 18.5969 11.9778 41.3544
Sn 19.2207 17.0854 3.68346
Sn 20.4496 20.803 44.9239
Sn 30.3681 18.7774 1.63088
Sn 24.0227 8.9744 6.30069
Sn 15.9271 19.5361 3.19082
Sn 17.7492 15.9117 45.0594
Sn 20.7763 10.1652 7.90945
Sn 28.4332 16.893 3.06454
Sn 20.9024 11.9464 43.1699
Sn 23.869 19.7424 4.75312
Sn 18.7288 15.829 6.6029
Sn 14.2572 10.5566 46.7275
Sn 22.8851 22.8403 5.73129
Sn 27.7992 18.1294 46.0479
Sn 22.8904 8.38036 3.42386
Sn 24.1716 21.9422 8.43684
Sn 23.6879 9.00142 45.1546
Sn 26.0458 9.25295 43.0387
Sn 23.8144 12.7847 41.655
Sn 24.4966 16.9078 42.4676
Sn 30.4635 10.3228 0.0891705
Sn 29.1603 8.8416 5.5946
Sn 27.0966 19.6955 3.68753
Sn 22.6273 17.8117 44.4734
Sn 21.7775 7.78312 -0.0305996
Sn 22.552 21.8893 49.7016
Sn 15.4388 19.651 6.4097
Sn 18.0891 15.5248 48.2621
Sn 15.2672 11.2192 2.22098
Sn 20.9003 19.8506 3.47239
Sn 26.7645 12.2738 41.4674
Sn 17.0208 13.7226 4.10983
Sn 16.1552 16.9221 4.63803
Sn 28.3636 15.5155 48.0791
