&CONTROL
   calculation      = 'scf'
   verbosity        = 'high'
   tstress          = .true.
   tprnfor          = .true.
   outdir           = './out'
   prefix           = 'scf'
   pseudo_dir       = '/n/home08/xiey/q-e/pseudo/'
/
&SYSTEM
   ibrav            = 0
   ecutwfc          = 50
   ecutrho          = 400
   nosym            = .true.
   occupations      = 'smearing'
   degauss          = 0.02
   smearing         = 'mv'
   ntyp             = 1
nat = 32
/
&ELECTRONS
   electron_maxstep = 200
   conv_thr         = 1e-08
   mixing_beta      = 0.4
/
&IONS
/
&CELL
   cell_dofree      = '2Dxy'
/

ATOMIC_SPECIES
Sn 118.71 sn_pbesol_v1.4.uspp.F.UPF

K_POINTS automatic
4 4 1  0 0 0

CELL_PARAMETERS angstrom
18.326316168 0.0 0.0
-9.163158084 15.87105535927349 0.0
0.0 0.0 20.0

ATOMIC_POSITIONS angstrom
Sn -0.04147898 0.05815595 -0.38784486 	
Sn 0.01827317 2.68981253 0.34729358 	
Sn -2.21046342 4.06210894 -0.44066132 	
Sn -2.30492606 6.67720980 0.41771383 	
Sn -4.56639758 8.02953272 -0.40693275 	
Sn -4.56249748 10.63527626 0.52908918 	
Sn -6.88443740 11.83793878 -0.28418054 	
Sn -6.92042580 14.50933437 0.40223176 	
Sn 4.44673076 0.04633835 -0.45395879 	
Sn 4.60464748 2.65120486 0.51949199 	
Sn 2.35536204 4.00504007 -0.37851591 	
Sn 2.29733819 6.61616477 0.47860546 	
Sn 0.06508652 7.93166852 -0.34239354 	
Sn -0.04945875 10.59537415 0.33519763 	
Sn -2.34097786 11.96097798 -0.42368746 	
Sn -2.37338227 14.63667261 0.36838254 	
Sn 9.13750980 0.02523057 -0.40665228 	
Sn 9.19269103 2.69991162 0.39911319 	
Sn 6.87981202 3.90567062 -0.48321070 	
Sn 6.84400576 6.51743437 0.45553389 	
Sn 4.62327130 7.83521776 -0.46944357 	
Sn 4.56742418 10.48798991 0.23225600 	
Sn 2.28323491 11.88602906 -0.35702904 	
Sn 2.26097731 14.56204957 0.40825295 	
Sn 13.76411966 -0.03727823 -0.33854436 	
Sn 13.83548512 2.65723498 0.31834868 	
Sn 11.52464628 4.02449218 -0.34629404 	
Sn 11.47420127 6.70925272 0.42269168 	
Sn 9.12547539 7.82762886 -0.46403137 	
Sn 9.14042155 10.44106636 0.38358459 	
Sn 6.89077401 11.80412862 -0.40407176 	
Sn 6.88085601 14.48661366 0.36966630 	
