 &control
    calculation = 'md'
    pseudo_dir  = '/n/home08/xiey/q-e/pseudo/'
    outdir = './out'
    tstress = .true.
    tprnfor = .true.
    dt = 100
    nstep = 10000
 /
 &system
    ibrav= 0
    nat= 64
    ntyp= 1
    ecutwfc = 50
    ecutrho = 400
    occupations = 'smearing'
    smearing = 'mv'
    degauss = 0.02
    nosym = .true.
 /
 &electrons
    conv_thr =  1.0e-06
    mixing_beta = 0.5
    electron_maxstep = 200
 /
 &ions
    pot_extrapolation = 'second-order'
    wfc_extrapolation = 'second-order'
    ion_temperature = 'rescale-v'
    tempw = 500
    nraise = 200
/

ATOMIC_SPECIES
Sn 118.71 sn_pbesol_v1.4.uspp.F.UPF

K_POINTS gamma

CELL_PARAMETERS {angstrom}
12.22 0.0 0.0 
0.0 12.22 0.0 
0.0 0.0 12.22

ATOMIC_POSITIONS (angstrom)
Sn       9.448368142   0.393182951   8.059604654
Sn      10.856618279   7.669433115  11.103878766
Sn       8.865702663  10.257347426   9.870850542
Sn       4.796061000   4.618058538   5.365542862
Sn       8.571260805   6.509268743  12.687284781
Sn       0.023465579  11.820796798   1.694944690
Sn       3.969079780  11.015299957   6.098043384
Sn       2.610709211   6.141663587   3.746112949
Sn      12.572350271   7.239625741   1.673541878
Sn       6.242683615   3.669229016   7.811877613
Sn      10.398585139  14.211894056   2.616525513
Sn       5.018088737   1.103930475   4.517342076
Sn       6.129706751   9.582284263   2.549782013
Sn       9.099909994   5.247094963   9.550155535
Sn       5.305244170  10.078379713  -0.488018133
Sn       9.180756614   4.805972389   6.739674950
Sn       2.213350956   8.189505925   6.595643638
Sn      -0.550263274   2.536732865   9.414501299
Sn       2.744260631   2.717887674   2.728025797
Sn       6.723974612   6.538895239   6.473787483
Sn       7.688837086  -0.623696602   3.516886148
Sn      10.580186080   1.992031161   5.563368201
Sn       1.490567053   0.495715261   7.984755727
Sn       2.928156500  10.743215609   9.493641742
Sn       0.540636704   2.114570008   0.059058024
Sn      11.833969336  10.249265206   8.690445614
Sn       1.334890157   7.699212103   9.729487420
Sn       0.602997308   9.505212475   4.253308458
Sn       1.856745912   5.092591184   7.729011944
Sn       6.499643441   4.612937214  -0.728596236
Sn       1.825476374   0.356185536   4.214427274
Sn       4.841984803   8.337299442   8.084243267
Sn       6.832462676  11.819382552   6.897902584
Sn       9.797928499   7.732952007   8.141337240
Sn       5.304456490   2.340497529   0.938640989
Sn       3.384956618  12.683423044  -0.121309529
Sn      10.733418818  -0.221862375  10.994939447
Sn      11.520719888  11.703533538   5.861603182
Sn       6.905544417   7.778810001  10.349859278
Sn       8.734285598   9.896033495   5.600194222
Sn      12.609136741   4.054499938   5.050992953
Sn       4.733504333   8.073659781   4.687741684
Sn      13.429084897   9.681331533  -0.301674859
Sn       7.909038612   0.755871026  13.186135712
Sn       2.836975410   2.684398793   6.122083770
Sn       6.149143777  12.490142533  10.833848978
Sn       3.818052682   7.625742321  -0.292477224
Sn       4.750991687   5.325688563   1.965107225
Sn       7.989825396   2.329839930   9.758279844
Sn       3.154238752  10.398974799   1.740332515
Sn       9.765828727   5.030541899   3.671430681
Sn       7.705024740   2.021672504   5.816201991
Sn       2.670932553   3.029989178  10.127016665
Sn       2.433932284   4.826772518  12.471516422
Sn       6.977956753   3.985578469   3.367021307
Sn       7.177641261   6.949488231   2.972553843
Sn      12.310753238   5.177843234  10.354757020
Sn      -0.326613342   6.687829444   6.116592899
Sn       9.517307401  10.529869245   1.293738130
Sn       9.670684463   3.812161141  12.295632357
Sn       4.244734368   5.562755002   9.793707428
Sn       4.569642355   1.383558793   8.310177211
Sn      10.068553330   7.996986853   3.814937405
Sn      -0.024154165   4.531004911   2.182029994
