 &inputph
  prefix='scf',
  outdir='/n/holyscratch01/kozinsky_lab/xiey/Stanene_revise/alpha/Phonon/scf/out',
  fildyn   = '/n/holyscratch01/kozinsky_lab/xiey/Stanene_revise/alpha/Phonon/ph/alpha.dyn',
  ldisp=.true.,
  nq1=4,
  nq2=4,
  nq3=4,
  tr2_ph   =  1.0d-14,
 /
