&CONTROL
   calculation      = 'scf'
   verbosity        = 'high'
   tstress          = .true.
   tprnfor          = .true.
   outdir           = './out'
   prefix           = 'scf'
   pseudo_dir       = '/n/home08/xiey/q-e/pseudo/'
/
&SYSTEM
   ibrav            = 0
   ecutwfc          = 50
   ecutrho          = 400
   nosym            = .true.
   occupations      = 'smearing'
   degauss          = 0.02
   smearing         = 'mv'
   ntyp             = 1
   nat              = 200
/
&ELECTRONS
   startingwfc      = 'atomic'
   electron_maxstep = 200
   conv_thr         = 2e-08
   mixing_beta      = 0.4
   mixing_mode      = 'local-TF'
/
&IONS
/
&CELL
   cell_dofree      = '2Dxy'
/

ATOMIC_SPECIES
Sn 118.71 sn_pbesol_v1.4.uspp.F.UPF

K_POINTS gamma

CELL_PARAMETERS angstrom
 39.6776  0.00000  0.0
  0.0000 45.81580  0.0
  0.0000  0.00000 50.0

ATOMIC_POSITIONS angstrom
Sn 25.936 15.4431 1.27339
Sn 25.7879 20.0416 6.9888
Sn 28.3969 11.2515 49.5964
Sn 22.7122 26.9665 45.9167
Sn 27.8686 24.2002 47.8091
Sn 22.5707 25.0633 42.3788
Sn 23.763 20.3055 46.3396
Sn 25.076 12.6551 5.40065
Sn 14.5649 23.2687 44.7119
Sn 22.7009 27.8608 43.1447
Sn 15.465 18.444 2.74152
Sn 30.4032 21.4155 48.5927
Sn 21.8165 18.7521 40.7169
Sn 28.8787 21.225 7.16681
Sn 28.8013 20.9048 43.406
Sn 28.1202 14.1613 6.35882
Sn 20.0447 25.492 44.4675
Sn 27.9581 8.91984 2.79767
Sn 16.2699 16.0672 50.048
Sn 17.1122 25.3081 42.775
Sn 30.1399 19.7554 2.63004
Sn 12.1436 21.6246 44.7541
Sn 29.9565 18.6726 49.7255
Sn 23.505 13.633 0.0445172
Sn 20.0413 16.8189 43.0196
Sn 15.717 11.0904 4.59704
Sn 28.5028 17.8266 43.8893
Sn 18.7944 11.76 48.8097
Sn 19.5165 13.9059 41.5793
Sn 18.1807 25.883 5.1179
Sn 28.458 11.934 4.29594
Sn 15.6851 12.6687 49.5058
Sn 23.2363 11.8917 47.0954
Sn 26.299 12.3973 47.4706
Sn 22.0339 12.69 10.0094
Sn 24.1769 8.38689 5.52582
Sn 24.6588 15.7171 6.43874
Sn 22.7654 14.2826 3.60433
Sn 31.8625 17.3668 4.12132
Sn 16.6058 14.8815 8.87474
Sn 24.351 17.5997 3.85557
Sn 30.5788 14.7345 4.76456
Sn 14.9452 24.1453 49.7466
Sn 13.101 21.9094 49.8059
Sn 24.5632 14.9812 46.5439
Sn 20.1772 10.8328 7.54025
Sn 16.7286 22.1885 42.4542
Sn 17.388 19.2024 49.5395
Sn 20.9174 13.348 45.4267
Sn 28.2864 21.7063 3.89814
Sn 29.4989 24.3495 3.17968
Sn 13.1246 23.5843 47.5528
Sn 21.7577 19.867 3.02022
Sn 27.0741 16.1147 8.5119
Sn 13.6887 13.4999 1.42622
Sn 20.4838 20.527 0.310976
Sn 22.7004 23.7949 7.36909
Sn 20.6565 13.8966 6.42401
Sn 27.7654 18.484 4.98402
Sn 21.9638 16.6971 1.93894
Sn 24.4395 13.9266 8.74558
Sn 15.7831 21.2407 1.73389
Sn 27.6067 14.9605 45.2911
Sn 29.5818 17.0087 47.1777
Sn 13.6532 17.9692 5.40218
Sn 21.0239 10.139 48.5637
Sn 25.4767 10.1542 3.69664
Sn 30.612 19.6098 5.76302
Sn 32.4854 17.5446 0.559504
Sn 18.4882 19.5852 41.7792
Sn 14.3146 18.9668 -0.310172
Sn 13.4283 16.4829 1.27702
Sn 23.8343 19.9448 42.7548
Sn 21.6374 15.4083 9.02261
Sn 26.4099 12.4596 1.98663
Sn 22.9874 22.5495 44.0222
Sn 24.9701 16.1535 43.3869
Sn 24.5681 17.9957 9.40723
Sn 24.4972 17.1807 40.4171
Sn 22.6522 17.9154 6.59632
Sn 15.6969 18.4948 42.4383
Sn 19.3088 18.8572 46.7162
Sn 23.505 10.8073 50.0693
Sn 21.3643 21.7517 41.6932
Sn 22.4066 20.6908 7.86316
Sn 27.906 21.999 0.755183
Sn 16.942 8.67828 1.51716
Sn 30.8421 15.2582 49.2822
Sn 21.2284 10.5236 1.92428
Sn 21.4087 7.52112 2.9859
Sn 20.1039 14.1079 1.87328
Sn 20.0463 18.2651 5.20912
Sn 22.143 26.8524 48.9681
Sn 18.0262 23.2217 3.34726
Sn 22.2921 14.5941 42.7457
Sn 27.5285 9.56497 5.71109
Sn 17.7368 26.8834 45.7106
Sn 18.3397 15.7523 45.4761
Sn 17.8766 12.8582 46.2135
Sn 21.6124 14.6283 47.8344
Sn 24.378 7.8166 2.15007
Sn 23.6051 19.8075 49.891
Sn 19.6022 25.1448 47.7777
Sn 14.6917 10.7147 1.89893
Sn 18.6195 6.54107 2.768
Sn 26.8025 15.883 4.20605
Sn 24.6278 22.6962 0.831886
Sn 18.0007 23.1087 50.2522
Sn 30.2358 19.5636 46.1409
Sn 15.4853 20.4118 5.67928
Sn 21.4847 23.284 49.7745
Sn 15.083 15.9672 44.177
Sn 20.6673 19.6398 44.0088
Sn 27.8373 19.0301 8.76555
Sn 18.3821 6.88154 5.69406
Sn 14.0167 16.1661 7.61279
Sn 18.1981 21.4621 6.30493
Sn 29.655 13.2276 1.58939
Sn 24.9205 22.4197 48.042
Sn 21.4575 26.5448 6.05491
Sn 20.2723 28.835 44.6723
Sn 26.1941 11.1688 7.6496
Sn 15.1459 24.8204 2.84228
Sn 19.7246 8.38771 0.574454
Sn 29.6179 16.2393 2.03981
Sn 14.8453 20.8693 47.4072
Sn 19.2156 13.161 9.0601
Sn 19.7245 27.0533 42.0168
Sn 13.8168 22.2872 3.68002
Sn 26.1341 18.9019 45.2094
Sn 24.0595 25.6569 1.69971
Sn 20.928 23.5146 4.51358
Sn 24.1275 25.4164 4.96835
Sn 12.6966 15.731 3.91218
Sn 13.3557 17.1125 46.7706
Sn 18.7122 14.5126 48.8948
Sn 29.87 12.9481 47.3101
Sn 27.4758 25.1879 0.472736
Sn 20.8885 21.5215 46.9972
Sn 27.7874 14.2498 49.2049
Sn 25.1408 12.9898 44.6273
Sn 19.9603 19.453 7.66409
Sn 29.9095 16.9808 7.06642
Sn 25.0531 25.8482 48.6776
Sn 18.9414 16.8236 1.81646
Sn 27.4011 20.5137 47.8428
Sn 17.5579 14.4312 5.83073
Sn 23.1384 21.6518 4.93322
Sn 18.5803 9.98322 4.56316
Sn 16.4815 12.0536 7.57794
Sn 26.5041 18.8513 41.6797
Sn 16.4866 8.84482 6.58117
Sn 14.6161 13.7142 5.90496
Sn 25.9769 22.9308 5.78217
Sn 26.1785 18.6905 0.238633
Sn 22.651 23.8223 47.0105
Sn 22.0281 11.3059 4.81027
Sn 20.3267 25.6152 1.5445
Sn 19.3384 24.0316 6.99366
Sn 19.1097 12.7449 4.00963
Sn 25.6095 20.1471 2.94589
Sn 26.6113 24.0718 3.01306
Sn 17.4339 17.3382 4.66262
Sn 25.5052 25.4181 45.5761
Sn 22.8813 17.6836 44.6557
Sn 17.8042 11.3677 1.68601
Sn 16.0752 24.1784 46.9219
Sn 21.0034 7.86113 5.88868
Sn 31.9293 21.9742 1.89277
Sn 17.2608 26.143 49.5981
Sn 19.1058 23.8118 41.3858
Sn 14.0713 19.4398 44.9364
Sn 19.952 10.6912 45.9673
Sn 26.4521 22.2393 45.0362
Sn 16.7889 13.6296 43.3294
Sn 23.3258 11.1095 7.53549
Sn 19.2235 17.1596 39.5271
Sn 18.9999 28.2329 48.1725
Sn 30.2387 24.1367 0.107678
Sn 16.3231 23.8802 6.03788
Sn 23.4214 16.7759 49.1228
Sn 17.5401 26.839 2.47531
Sn 18.8941 16.7739 8.58332
Sn 21.6636 15.6042 40.1529
Sn 15.3531 14.5353 47.2198
Sn 16.1956 18.037 7.36822
Sn 29.5759 22.5251 45.9591
Sn 19.6239 22.6633 44.0446
Sn 26.0153 9.56074 49.9456
Sn 22.1687 26.9668 3.27983
Sn 16.2862 17.7379 46.8542
Sn 25.4811 24.0291 42.5307
Sn 16.8355 20.7898 44.782
Sn 20.3094 17.464 49.3433
Sn 17.7769 21.6527 47.6001
Sn 17.3986 16.1017 41.6972
Sn 15.6238 14.9841 3.15506
Sn 18.6573 20.2648 3.46411
Sn 31.1248 22.3966 4.77765
Sn 26.8072 16.8572 47.6594
