&CONTROL
   calculation      = 'scf'
   verbosity        = 'high'
   tstress          = .true.
   tprnfor          = .true.
   outdir           = './out'
   prefix           = 'scf'
   pseudo_dir       = '/n/home08/xiey/q-e/pseudo/'
/
&SYSTEM
   ibrav            = 0
   ecutwfc          = 50
   ecutrho          = 400
   nosym            = .true.
   occupations      = 'smearing'
   degauss          = 0.02
   smearing         = 'mv'
   ntyp             = 1
   nat              = 200
/
&ELECTRONS
   startingwfc      = 'atomic'
   electron_maxstep = 200
   conv_thr         = 2e-08
   mixing_beta      = 0.4
   mixing_mode      = 'local-TF'
/
&IONS
/
&CELL
   cell_dofree      = '2Dxy'
/

ATOMIC_SPECIES
Sn 118.71 sn_pbesol_v1.4.uspp.F.UPF

K_POINTS gamma

CELL_PARAMETERS angstrom
 39.6776  0.00000  0.0
  0.0000 45.81580  0.0
  0.0000  0.00000 50.0

ATOMIC_POSITIONS angstrom
Sn 36.6492 32.1307 48.4087
Sn 1.26502 16.2376 1.73875
Sn 6.74639 32.3769 49.1981
Sn 12.7494 35.9265 2.44897
Sn 12.8353 6.32665 49.5014
Sn 15.4708 0.981112 49.431
Sn 16.4501 0.205828 2.23397
Sn 15.0369 4.23559 49.6587
Sn 17.7045 3.04626 0.974206
Sn 18.1061 0.419716 49.3884
Sn 20.1877 44.454 1.98498
Sn 20.1969 2.618 49.0979
Sn 20.9891 1.56702 2.04546
Sn 23.1536 44.5658 1.71444
Sn 22.5865 1.20656 49.6032
Sn 26.815 8.3593 49.4484
Sn 27.2327 2.21225 48.5581
Sn 25.1457 0.922387 1.25959
Sn 27.5582 45.242 0.144427
Sn 29.8942 7.53934 49.4974
Sn 1.09224 19.0668 2.12519
Sn 7.1684 11.7883 1.47988
Sn 11.9838 8.38441 1.77399
Sn 8.41034 13.6136 49.1516
Sn 9.72684 10.9103 0.570376
Sn 12.6525 9.52364 49.2374
Sn 14.7066 6.78309 2.06864
Sn 15.4284 8.05257 49.1832
Sn 17.7799 6.78371 1.12794
Sn 17.8068 5.25091 48.5201
Sn 20.7011 5.17874 0.445672
Sn 20.5252 8.4209 1.13885
Sn 23.2089 7.47175 0.947043
Sn 22.9035 3.92547 1.85581
Sn 24.6586 3.54786 49.6168
Sn 25.4018 5.72662 1.38995
Sn 31.2192 10.2418 49.2043
Sn 28.8186 9.22361 1.78928
Sn 32.3319 12.4909 0.999074
Sn 32.2262 12.7984 48.0718
Sn 37.3491 15.6702 49.1095
Sn 3.72369 17.9836 1.53008
Sn 5.62393 12.1058 49.2088
Sn 5.59085 14.659 47.8356
Sn 10.4909 13.8607 1.60157
Sn 11.5162 12.2532 48.7287
Sn 14.5327 10.1193 1.72954
Sn 13.4295 13.1537 0.773496
Sn 16.2841 12.6135 -0.0013119
Sn 18.0347 10.0339 0.664
Sn 20.5211 10.502 49.152
Sn 21.6753 12.2452 1.03473
Sn 24.2667 12.2744 -0.0323332
Sn 23.5748 9.54708 48.8135
Sn 25.6404 8.49182 2.3679
Sn 26.4657 11.2496 1.57222
Sn 29.6489 12.168 1.58752
Sn 27.6964 5.07585 49.5237
Sn 34.727 13.8046 49.5155
Sn 34.272 16.4512 49.3699
Sn 39.2617 17.6876 49.5747
Sn 1.75112 15.8419 48.6776
Sn 3.92454 14.8793 0.660697
Sn 4.46635 17.7294 48.6896
Sn 7.31535 16.2898 49.7202
Sn 10.2062 15.7684 49.218
Sn 13.2435 16.1261 0.758719
Sn 14.6854 18.8732 48.969
Sn 16.2361 16.3487 0.587347
Sn 17.8379 14.3567 1.78438
Sn 20.3103 14.6604 0.931988
Sn 21.8208 16.8051 0.668141
Sn 24.2431 16.5706 49.3887
Sn 25.7671 14.5859 0.760557
Sn 28.5388 14.3035 49.9144
Sn 29.5583 17.0488 1.15015
Sn 31.8914 18.2388 49.2949
Sn 28.502 11.2603 48.8179
Sn 31.6785 15.2107 49.8449
Sn 36.1385 17.7681 0.884268
Sn 39.2061 20.5549 49.95
Sn 2.39558 21.4463 0.205118
Sn 4.97625 20.6302 48.9609
Sn 5.7461 21.7399 1.5292
Sn 8.04127 20.6122 0.168759
Sn 8.93851 18.6623 48.7712
Sn 11.6112 18.4899 0.312619
Sn 12.8551 20.8054 1.09713
Sn 15.6394 20.8244 0.728525
Sn 17.2457 18.869 1.89341
Sn 19.82 18.7143 0.73342
Sn 21.1735 21.0564 1.52301
Sn 23.8582 20.8318 1.42903
Sn 25.4491 18.9976 0.259501
Sn 28.1894 19.35 0.279541
Sn 29.3662 21.5359 1.72427
Sn 32.1744 21.8146 0.64726
Sn 33.7006 19.3121 1.20914
Sn 36.1713 20.6024 0.0526166
Sn 38.4674 22.6358 1.86805
Sn 38.256 25.7282 2.01843
Sn 0.595724 23.5016 49.3379
Sn 4.33941 23.9577 49.3206
Sn 5.26382 24.7195 2.79137
Sn 6.95508 24.7075 0.2567
Sn 9.26448 23.0481 49.3098
Sn 11.3198 23.2243 1.13337
Sn 13.0995 24.9744 49.8133
Sn 15.8295 25.3003 0.242815
Sn 17.2922 23.1366 0.568922
Sn 19.9511 23.2668 0.399455
Sn 20.9838 25.7862 0.679534
Sn 23.6458 25.5923 1.60253
Sn 25.0947 23.2505 1.7972
Sn 27.789 23.6516 1.45786
Sn 29.6491 25.7364 1.034
Sn 32.0009 25.6894 49.4005
Sn 32.9035 24.0691 2.13681
Sn 35.6259 23.9002 1.45418
Sn 37.8078 25.4201 49.194
Sn 0.823357 27.129 49.0623
Sn 2.28152 25.3775 0.760098
Sn 6.33802 27.6175 2.91272
Sn 8.14931 27.704 49.9335
Sn 10.4148 29.1316 2.68949
Sn 8.83915 26.0748 2.33977
Sn 11.1065 27.0236 0.713055
Sn 13.0193 29.0949 0.0776427
Sn 15.2492 29.6367 1.86556
Sn 16.8628 27.7939 0.665482
Sn 19.6636 28.1996 0.66059
Sn 20.8798 30.4147 2.10143
Sn 23.5242 30.6074 1.17056
Sn 25.0146 28.0504 0.94052
Sn 27.541 27.7604 49.8564
Sn 28.7007 30.2984 0.426909
Sn 30.3676 28.1589 48.8601
Sn 34.255 27.0486 0.59814
Sn 36.4799 27.6542 48.4272
Sn 36.5256 29.8142 0.124008
Sn 2.86075 30.3624 1.30112
Sn 4.27936 27.1384 48.8682
Sn 3.72873 27.4899 2.03543
Sn 7.70713 30.1498 2.43184
Sn 11.7364 31.688 2.8757
Sn 10.3066 29.2872 48.8409
Sn 12.3196 32.1244 48.546
Sn 13.8159 32.2052 1.14514
Sn 15.4237 34.8952 2.7833
Sn 16.7982 32.2152 2.22844
Sn 19.8538 32.8606 1.30274
Sn 21.6282 34.9893 1.79638
Sn 23.216 34.717 49.5117
Sn 24.8729 32.7868 0.425031
Sn 27.0297 31.9335 48.953
Sn 25.8548 34.6366 48.1536
Sn 31.3215 30.8298 48.3174
Sn 33.1444 29.9021 0.747238
Sn 33.6897 28.6994 47.9046
Sn 2.5137 29.6249 48.2008
Sn 3.86113 32.6055 49.6845
Sn 5.63739 29.6254 0.367799
Sn 9.85461 31.8114 0.324097
Sn 10.1425 34.1994 2.24426
Sn 10.0906 37.0014 0.497072
Sn 11.9567 34.9762 48.973
Sn 14.4944 36.0931 49.9542
Sn 14.8582 40.8065 2.07999
Sn 16.2131 37.9595 1.72402
Sn 17.7309 34.9591 0.893417
Sn 20.5791 36.8015 49.6343
Sn 19.2063 37.6561 1.9408
Sn 23.2391 37.5926 1.23267
Sn 24.1178 38.0384 48.3173
Sn 25.9557 36.3913 1.03088
Sn 27.3485 37.9214 48.8416
Sn 28.7487 40.1222 0.247499
Sn 28.2941 34.7734 49.9288
Sn 34.9308 32.3916 0.79147
Sn 0.180095 29.6918 0.562585
Sn 26.1594 40.9485 48.7694
Sn 38.8299 29.3954 47.7949
Sn 7.48103 33.0304 1.93891
Sn 8.45964 34.5447 49.017
Sn 15.0001 3.00391 2.18277
Sn 12.2669 38.9827 1.94992
Sn 13.9547 38.8829 49.5703
Sn 14.7221 43.9533 2.63459
Sn 16.0613 43.2342 -0.0264986
Sn 17.9054 41.2737 1.94665
Sn 20.4618 40.1672 49.9673
Sn 18.9435 43.3705 49.3532
Sn 21.8299 43.2208 49.4878
Sn 23.3323 40.8215 48.6111
Sn 26.0718 39.3286 1.6347
Sn 23.5985 41.2231 1.55779
Sn 25.4068 44.042 49.0249
Sn 27.0089 42.5319 1.41618
Sn 31.827 32.5584 0.476984
Sn 34.2044 31.6724 47.3587
