&CONTROL
   calculation      = 'scf'
   verbosity        = 'high'
   tstress          = .true.
   tprnfor          = .true.
   outdir           = './out'
   prefix           = 'scf'
   pseudo_dir       = '/n/home08/xiey/q-e/pseudo/'
/
&SYSTEM
   ibrav            = 0
   ecutwfc          = 50
   ecutrho          = 400
   nosym            = .true.
   occupations      = 'smearing'
   degauss          = 0.02
   smearing         = 'mv'
   ntyp             = 1
   nat              = 200
/
&ELECTRONS
   startingwfc      = 'atomic'
   electron_maxstep = 200
   conv_thr         = 2e-08
   mixing_beta      = 0.4
   mixing_mode      = 'local-TF'
/
&IONS
/
&CELL
   cell_dofree      = '2Dxy'
/

ATOMIC_SPECIES
Sn 118.71 sn_pbesol_v1.4.uspp.F.UPF

K_POINTS gamma

CELL_PARAMETERS angstrom
 39.6776  0.00000  0.0
  0.0000 45.81580  0.0
  0.0000  0.00000 50.0

ATOMIC_POSITIONS angstrom
Sn 39.5574 2.21401 50.6921
Sn 1.21001 -0.247881 0.870849
Sn 4.06665 0.229196 0.368143
Sn 5.3178 2.33286 1.60953
Sn 8.07203 2.27391 0.79884
Sn 9.54417 45.8815 1.42592
Sn 11.7558 0.0993772 49.5809
Sn 13.269 2.1355 0.892514
Sn 15.8007 2.4234 49.6484
Sn 17.1382 46.0351 1.02018
Sn 19.6934 -0.157173 -0.0512766
Sn 21.3574 1.99668 1.00983
Sn 24.2268 2.0533 1.55511
Sn 25.3531 45.9668 -0.0552074
Sn 28.0865 -0.14455 0.122328
Sn 29.0638 2.30655 1.10939
Sn 31.7045 2.46621 50.3597
Sn 32.9694 0.0315508 1.11749
Sn 35.54 45.7952 0.323789
Sn 36.7931 2.40237 0.411995
Sn 0.12858 6.64062 0.66095
Sn 1.29609 4.41351 1.79031
Sn 4.04129 4.61881 0.863703
Sn 5.53118 7.00425 1.30407
Sn 7.97325 6.75034 0.0432496
Sn 9.40785 4.57592 1.29003
Sn 12.0225 4.61414 0.368066
Sn 12.9356 6.93588 1.35683
Sn 15.7063 6.76572 0.477812
Sn 17.0179 4.45727 0.975008
Sn 19.7134 4.33357 0.653555
Sn 20.9092 6.81934 1.02721
Sn 23.5653 6.92322 0.18368
Sn 25.1295 4.62392 0.921944
Sn 27.9012 4.76899 1.4581
Sn 29.0902 6.71823 49.8903
Sn 31.8332 7.12092 50.3616
Sn 33.2347 4.64594 1.01983
Sn 35.7335 4.86661 49.6967
Sn 37.1861 7.01356 0.617308
Sn 0.558093 11.414 0.10047
Sn 1.43335 8.94703 1.23029
Sn 4.0437 9.17874 0.548791
Sn 5.32791 11.6471 0.641214
Sn 8.10318 11.7169 -0.344931
Sn 9.22607 9.31353 0.557587
Sn 11.9947 9.16899 -0.000148206
Sn 13.2159 11.4824 1.14634
Sn 15.9692 11.4539 0.355502
Sn 17.2112 9.07803 0.906343
Sn 19.8701 9.04938 49.948
Sn 21.2705 11.3131 0.975286
Sn 23.8902 11.3733 49.8863
Sn 25.1416 9.07557 0.47115
Sn 27.8376 9.07334 49.5642
Sn 29.2271 11.3022 0.114071
Sn 31.965 11.4281 49.6036
Sn 33.2563 9.47751 1.11056
Sn 35.8263 9.30003 0.0947501
Sn 37.3736 11.5606 0.628999
Sn 0.316877 15.9751 0.121374
Sn 1.44357 13.844 1.26647
Sn 3.7636 13.7533 -0.334519
Sn 5.14486 16.1097 0.605756
Sn 8.00196 16.2087 49.8488
Sn 9.43267 13.8935 0.823721
Sn 12.08 13.7391 49.9067
Sn 13.4039 16.0138 0.563769
Sn 15.9718 16.1135 49.594
Sn 17.0906 13.8024 0.47377
Sn 19.8723 13.7404 1.00511
Sn 21.2724 15.8175 49.6238
Sn 23.8872 15.961 0.689008
Sn 25.4526 13.6544 50.1785
Sn 28.0989 13.6932 49.3454
Sn 29.2773 15.902 0.448626
Sn 31.9756 15.7665 49.7285
Sn 33.469 13.5935 0.597578
Sn 36.0889 13.7828 49.5379
Sn 37.2995 16.1461 0.7381
Sn 39.6326 20.7691 49.8712
Sn 1.28368 18.4984 0.72898
Sn 3.92133 18.404 49.6577
Sn 5.22501 20.7796 49.3524
Sn 7.92873 20.419 48.7747
Sn 9.1747 18.7128 0.499195
Sn 11.712 18.1402 49.7739
Sn 13.1985 20.4131 49.4459
Sn 15.9842 20.8833 49.0378
Sn 17.3006 18.5618 0.0299264
Sn 19.9924 18.2575 -0.268073
Sn 21.4 20.4305 48.7797
Sn 23.9049 20.647 49.8446
Sn 25.2683 18.1594 49.8278
Sn 28.1201 18.3399 49.3817
Sn 28.8479 20.6862 0.773621
Sn 31.6233 20.5581 0.475817
Sn 32.9727 18.2068 0.518561
Sn 35.6607 18.2723 49.8034
Sn 37.0083 20.5017 0.419005
Sn -0.110303 25.3791 50.3896
Sn 1.01934 23.0337 1.16953
Sn 3.55494 23.1228 49.6377
Sn 5.33866 25.312 0.124103
Sn 7.98203 25.1349 49.1235
Sn 9.15874 22.7166 49.7968
Sn 11.8999 22.9026 49.6963
Sn 13.2509 25.0122 0.941438
Sn 15.7216 25.2475 -0.234694
Sn 17.3019 23.0227 50.3921
Sn 19.8617 22.7965 49.425
Sn 20.8531 25.2121 0.472157
Sn 23.5531 25.0698 49.459
Sn 24.9516 23.0431 0.768322
Sn 27.5647 23.0181 49.8605
Sn 28.958 25.1617 0.807489
Sn 31.6421 25.2837 -0.0703245
Sn 33.0427 22.9268 1.10156
Sn 35.6928 23.0342 0.0551052
Sn 36.9957 25.1317 1.28839
Sn -0.0778919 29.7456 49.8496
Sn 1.41534 27.59 0.830277
Sn 4.07132 27.6652 49.9755
Sn 5.26719 29.8311 1.24406
Sn 8.11831 29.545 0.83506
Sn 9.27315 27.0801 0.690269
Sn 11.9203 27.3752 0.199866
Sn 13.2645 29.4587 1.41556
Sn 15.7817 29.847 50.2869
Sn 16.9558 27.4222 0.995726
Sn 19.5776 27.5502 49.8175
Sn 20.9789 29.8011 50.4808
Sn 23.4476 29.8498 49.0935
Sn 24.8758 27.5677 -0.247905
Sn 27.5364 27.5964 0.514016
Sn 28.9687 29.8643 1.23097
Sn 31.5594 29.9026 0.146012
Sn 32.8363 27.6446 0.900385
Sn 35.6111 27.4436 0.585827
Sn 36.9673 29.923 0.803615
Sn 0.110306 34.2222 -0.285541
Sn 1.35959 32.0765 0.750531
Sn 4.18742 32.1023 0.357818
Sn 5.30032 34.3568 1.25383
Sn 8.07777 34.3688 0.88102
Sn 9.41286 31.9792 1.09218
Sn 12.2004 31.9124 0.688962
Sn 13.1737 34.2919 1.47555
Sn 15.8669 34.2102 0.561043
Sn 17.3874 32.0698 1.31853
Sn 19.7148 32.1428 -0.250273
Sn 20.9877 34.3533 0.968081
Sn 23.6999 34.2921 50.2888
Sn 24.8406 31.9306 0.497405
Sn 27.5603 32.0933 50.3532
Sn 29.081 34.3014 1.23879
Sn 31.6275 34.3581 0.155949
Sn 33.2476 32.0346 0.9546
Sn 35.6886 32.0624 49.4063
Sn 36.9469 34.4453 -0.194133
Sn 39.6661 38.9159 50.0003
Sn 1.52674 36.5264 0.218942
Sn 4.25721 36.653 -0.135541
Sn 5.18029 39.2183 0.761343
Sn 7.99281 39.0648 0.206306
Sn 9.48144 36.7618 1.11377
Sn 12.077 36.4559 0.0656744
Sn 13.2386 38.9622 -0.165219
Sn 16.003 38.9108 0.290216
Sn 17.1124 36.5964 1.10985
Sn 19.5671 36.4412 49.8304
Sn 20.8037 38.7099 0.612805
Sn 23.586 38.9655 0.150767
Sn 24.8275 36.6871 1.09919
Sn 27.5515 36.6137 0.860185
Sn 28.7923 38.8815 1.67998
Sn 31.2852 39.1904 0.58655
Sn 32.8065 36.8617 0.340407
Sn 35.6288 36.9213 49.8698
Sn 37.0198 39.0788 0.894399
Sn 39.38 43.5873 -0.357824
Sn 1.18894 41.3559 0.546509
Sn 3.91179 41.328 49.6365
Sn 5.50084 43.6609 0.434622
Sn 8.29503 43.5784 0.351246
Sn 9.41287 41.1509 1.23679
Sn 11.6983 41.3091 -0.272111
Sn 13.4172 43.5222 -0.313336
Sn 15.6587 43.5441 1.34968
Sn 17.068 41.3972 0.477883
Sn 19.7879 41.2116 0.447136
Sn 21.3267 43.6408 1.12126
Sn 23.912 43.4581 -0.178418
Sn 25.1533 41.179 1.26486
Sn 27.7453 41.0167 0.333214
Sn 29.1254 43.5093 1.63065
Sn 31.7717 43.3351 0.683039
Sn 33.1227 41.0896 1.65438
Sn 35.4369 41.4044 0.0820285
Sn 36.9152 43.5633 1.05267
