&CONTROL
   calculation      = 'scf'
   verbosity        = 'high'
   tstress          = .true.
   tprnfor          = .true.
   outdir           = './out'
   prefix           = 'scf'
   pseudo_dir       = '/n/home08/xiey/q-e/pseudo/'
/
&SYSTEM
   ibrav            = 0
   ecutwfc          = 50
   ecutrho          = 400
   nosym            = .true.
   occupations      = 'smearing'
   degauss          = 0.02
   smearing         = 'mv'
   ntyp             = 1
   nat              = 200
/
&ELECTRONS
   startingwfc      = 'atomic'
   electron_maxstep = 200
   conv_thr         = 2e-08
   mixing_beta      = 0.4
   mixing_mode      = 'local-TF'
/
&IONS
/
&CELL
   cell_dofree      = '2Dxy'
/

ATOMIC_SPECIES
Sn 118.71 sn_pbesol_v1.4.uspp.F.UPF

K_POINTS gamma

CELL_PARAMETERS angstrom
 39.6776  0.00000  0.0
  0.0000 45.81580  0.0
  0.0000  0.00000 50.0

ATOMIC_POSITIONS angstrom
Sn 32.9451 38.1085 5.20047
Sn 25.5931 0.504553 4.1845
Sn 22.0978 -0.29298 5.23808
Sn 21.6611 44.1212 8.65317
Sn 0.188166 34.0448 47.6588
Sn 39.4223 34.0594 3.36364
Sn 38.8663 39.9985 46.2778
Sn 31.595 31.0668 2.47725
Sn 37.2638 36.5603 0.00757053
Sn 27.7648 31.5149 48.0614
Sn 21.7034 43.8549 2.76927
Sn 0.330938 38.3144 1.46947
Sn 24.531 36.8195 1.76147
Sn 19.9949 39.4069 48.4746
Sn 25.9235 34.2978 4.8742
Sn 21.2203 35.4797 49.0801
Sn 26.9105 40.2832 10.5437
Sn 27.8459 32.4039 44.2496
Sn 32.7199 33.6628 1.40359
Sn 33.1343 1.05572 48.6555
Sn 27.3102 38.143 49.1974
Sn 28.9633 42.1449 38.9474
Sn 29.2592 29.5222 43.5977
Sn 30.8483 37.1381 7.59247
Sn 30.0667 32.7935 49.7983
Sn 33.4334 44.6759 5.75703
Sn 28.2112 37.4621 5.90468
Sn 28.8797 29.9497 0.715171
Sn 29.0705 37.8457 43.1311
Sn 32.3153 29.4982 43.5291
Sn 37.9131 34.7167 45.432
Sn 36.5771 41.9685 47.2502
Sn 38.3065 41.0685 49.7475
Sn 27.4635 35.2888 44.2419
Sn 25.2369 45.9164 7.60812
Sn 33.6249 39.3684 2.3426
Sn 38.068 38.3669 5.70187
Sn 32.7599 39.3319 9.02529
Sn 29.3623 30.7552 4.11178
Sn 22.8962 41.3824 7.16853
Sn 25.1578 42.3366 2.25938
Sn 31.6163 35.5994 43.7968
Sn 31.5154 34.2426 7.95585
Sn 30.678 32.4885 42.6335
Sn 30.5504 40.0544 4.40396
Sn 27.2853 41.7542 4.69589
Sn 26.1999 42.8396 43.8019
Sn 29.2187 41.3778 42.0287
Sn 0.984105 39.3962 48.7667
Sn 34.5312 33.0014 7.04254
Sn 35.086 36.105 45.0539
Sn 26.4507 1.68835 47.9319
Sn 24.4092 43.8205 5.14083
Sn 28.4698 33.9495 6.35947
Sn 36.8839 38.162 47.3774
Sn 34.0321 28.7321 48.855
Sn 26.8779 37.3811 8.90682
Sn 19.0929 44.3765 48.5285
Sn 31.08 31.1374 45.8097
Sn 32.9367 41.973 46.7577
Sn 0.134014 37.1101 46.482
Sn 24.0464 41.4082 45.4691
Sn 38.3252 31.8241 45.8951
Sn 32.1259 44.6047 0.95797
Sn 35.2514 41.2572 4.07799
Sn 32.9053 41.2702 6.62144
Sn 27.405 44.6555 48.4541
Sn 32.458 42.6102 3.40114
Sn 28.6187 43.2055 2.0242
Sn 21.1679 0.246382 49.3942
Sn 32.4556 43.6575 8.52635
Sn 26.5166 34.6392 47.0885
Sn 39.2858 33.2398 0.741841
Sn 35.2806 45.4174 1.7838
Sn 21.2209 37.7674 0.650679
Sn 24.5934 33.0494 44.7643
Sn 28.9844 43.6608 45.5672
Sn 21.6892 43.1476 49.8146
Sn 28.7459 3.23011 -0.0679219
Sn 36.0781 33.2652 47.4934
Sn 29.7891 0.377652 2.12379
Sn 30.0491 0.664268 48.3666
Sn 25.7237 39.0088 3.91703
Sn 28.4077 44.7602 8.62028
Sn 23.3071 0.0187719 47.4662
Sn 22.8377 38.2328 5.40301
Sn 30.4946 39.4424 39.9167
Sn 28.7431 35.2197 8.96825
Sn 24.7253 43.5287 48.4933
Sn 27.5786 38.9293 40.2522
Sn 31.4003 39.2488 0.32186
Sn 27.1303 1.7464 9.51137
Sn 26.18 39.3097 43.0152
Sn 36.6695 33.4602 2.42834
Sn 29.5759 39.59 48.1326
Sn 24.62 45.658 10.3738
Sn 22.0202 36.2193 3.30227
Sn 26.8058 31.6418 2.50371
Sn 36.6094 35.7636 6.40162
Sn 31.2419 29.3182 48.4133
Sn 34.2777 31.8591 3.97922
Sn 28.5005 34.1037 41.5433
Sn 22.7457 1.0876 8.17327
Sn 22.9435 41.1432 4.19712
Sn 32.9191 31.7337 48.7432
Sn 34.3468 36.7173 41.8072
Sn 25.5862 30.195 45.8904
Sn 31.8633 36.5285 0.934693
Sn 31.9583 44.9462 46.2201
Sn 25.0792 36.8201 6.55658
Sn 34.0338 36.3679 47.8302
Sn 25.9913 42.0175 7.66002
Sn 26.4919 41.6589 41.0438
Sn 28.2784 40.0309 2.08617
Sn 23.62 42.2456 9.93926
Sn 34.0777 31.6041 44.4155
Sn 28.9474 43.3534 11.1206
Sn 35.2794 31.0504 0.861122
Sn 28.3554 35.4696 49.8791
Sn 29.0598 33.6514 2.74409
Sn 31.5727 32.0126 5.57913
Sn 27.9112 44.7263 4.92537
Sn 36.1897 39.6074 1.09341
Sn 26.0826 44.9865 45.6268
Sn 30.6348 43.7965 5.99665
Sn 22.2524 40.5122 1.30967
Sn 32.5094 38.8642 45.5185
Sn 35.6686 42.6824 1.2198
Sn 38.1746 36.8507 3.33735
Sn 24.477 36.198 44.0259
Sn 32.4415 41.793 41.1229
Sn 34.1534 34.8992 4.59341
Sn 26.237 3.68348 1.52474
Sn 32.7307 0.500257 3.29478
Sn 34.9482 43.652 45.0261
Sn 30.0041 40.4086 45.166
Sn 26.9096 0.844384 0.929462
Sn 34.0968 34.1875 43.3052
Sn 20.6068 40.426 45.3834
Sn 30.6832 36.2127 41.2178
Sn 30.1831 43.1111 48.4015
Sn 26.0779 29.6945 0.337005
Sn 31.1326 42.7911 43.6229
Sn 23.1167 39.1195 43.6756
Sn 30.3684 41.4072 8.58935
Sn 22.7214 34.6254 46.2081
Sn 35.6411 30.3304 46.6221
Sn 37.8097 31.2739 48.8618
Sn 24.5745 31.264 48.2228
Sn 37.5058 32.9878 5.49345
Sn 21.346 43.0631 46.7007
Sn 28.127 28.2331 48.0697
Sn 25.1913 39.696 0.751554
Sn 35.3394 39.0754 6.7378
Sn 22.5471 1.12335 2.79274
Sn 35.9377 38.8371 43.6457
Sn 26.1371 37.7077 46.1452
Sn 23.7278 2.21392 -0.216212
Sn 26.9247 40.7186 45.8549
Sn 27.1823 28.0196 45.2724
Sn 35.1916 34.7069 49.9024
Sn 22.9987 40.7487 48.1991
Sn 26.1249 43.4696 11.417
Sn 30.3186 27.8871 45.8325
Sn 30.7083 35.3345 5.0698
Sn 29.6245 37.1635 2.97006
Sn 34.2018 36.3581 7.65133
Sn 33.9863 41.2626 43.8733
Sn 25.3056 2.87373 6.9519
Sn 24.1131 34.1694 2.56124
Sn 26.2414 3.44577 4.45903
Sn 31.2953 35.335 48.4549
Sn 37.1102 41.7003 44.0962
Sn 34.2141 39.4244 48.4467
Sn 30.0401 34.1587 45.9056
Sn 32.4347 39.1237 42.1768
Sn 25.5832 33.5823 -0.0909021
Sn 32.8606 41.8526 -0.0413817
Sn 34.7062 36.6692 2.11139
Sn 31.4848 2.30323 0.653526
Sn 28.0228 40.065 7.47153
Sn 19.9346 37.166 46.3819
Sn 30.0794 1.03904 4.86692
Sn 38.2771 40.0585 3.05314
Sn 27.4614 41.3485 49.316
Sn 34.8029 44.3025 48.6493
Sn 28.0722 2.37545 6.57076
Sn 33.1441 33.628 46.4232
Sn 29.6693 39.0593 10.1005
Sn 29.5792 37.1462 46.1772
Sn 18.5547 41.9783 47.0325
Sn 24.489 39.1768 8.25756
Sn 28.9917 3.61638 3.13471
Sn 24.0652 35.4662 48.7655
Sn 27.1919 35.8038 2.59641
Sn 24.4526 45.1557 1.23109
Sn 22.9411 38.148 46.8172
Sn 0.339077 36.1298 49.4615
Sn 25.9088 36.65 41.2926
Sn 33.3281 28.3362 45.9604
